2441327210909418118506,12,1,2,010,7,1,2,015,13,1,2,08,5,1,2,014,8,1,2,06,11,1,2,02,7,1,2,09,1,1,2,03,10,1,2,015,14,1,2,04,10,1,2,014,3,1,2,014,3,1,2,011,14,1,2,08,15,1,2,09,11,1,2,011,10,1,2,015,14,1,2,04,4,1,2,02,15,1,2,012,1,1,2,05,13,1,2,014,2,1,2,015,8,1,2,08,14,1,2,014,15,1,2,03,2,1,2,015,13,1,2,08,11,1,2,02,4,1,2,07,3,1,2,05,12,1,2,010,14,1,2,011,5,1,2,014,11,1,2,09,10,1,2,01,14,1,2,05,2,1,2,013,2,1,2,012,2,1,2,011,9,1,2,01,7,1,2,013,8,1,2,010,5,1,2,02,2,1,2,09,15,1,2,08,14,1,2,02,13,1,2,015,11,1,2,015,3,1,2,0